data/instances/vrp_files/train_42.vrp
NAME : 42
COMMENT : Generated instance No. 42
TYPE : CVRP
DIMENSION : 21
EDGE_WEIGHT_TYPE : EUC_2D
CAPACITY : 30
NODE_COORD_SECTION
 1 543 227
 2 888 602
 3 826 984
 4 288 961
 5 389 385
 6 340 541
 7 154 553
 8 541 761
 9 833 440
 10 302 259
 11 194 57
 12 342 270
 13 966 557
 14 347 580
 15 139 444
 16 626 488
 17 401 993
 18 880 623
 19 569 620
 20 201 395
 21 39 475
DEMAND_SECTION
1 0
2 5
3 2
4 6
5 6
6 5
7 6
8 7
9 5
10 1
11 8
12 4
13 9
14 10
15 6
16 1
17 3
18 3
19 10
20 4
21 6
DEPOT_SECTION
 1
 -1
EOF